NAME : ClusterId_250 
COMMENT : (Gillet and Johnson) 
TYPE : CVRP 
DIMENSION : 5 
EDGE_WEIGHT_TYPE : EUC_2D 
CAPACITY : 500 
NODE_COORD_SECTION 
251 33 -33 
200 38 -24 
209 26 -37 
45 42 -15 
247 17 -35 
DEMAND_SECTION 
251 100
200 3
209 19
45 12
247 65
DEPOT_SECTION 
251
 -1
EOF